Maximize
  523 r0 + 690 r1 + 420 r2 + 1010 r3 + 1200 r4 + 850 r5 + 400 r6 + 1008 r7
   + 950 r8
Subject To
 R0: t0 + t1 + t4 - r0 >= 0
 R1: t0 - r1 >= 0
 R2: t2 + t3 + t4 - r2 >= 0
 R3: t2 + t5 - r3 >= 0
 R4: t2 + t5 - r4 >= 0
 R5: t0 + t3 - r5 >= 0
 R6: t2 + t3 + t4 - r6 >= 0
 R7: t1 + t4 - r7 >= 0
 R8: t1 + t4 + t5 - r8 >= 0
 R9: 4.2 t0 + 6.1 t1 + 5.2 t2 + 5.5 t3 + 4.8 t4 + 9.2 t5 <= 20
Bounds
Binaries
 t0 t1 t2 t3 t4 t5 r0 r1 r2 r3 r4 r5 r6 r7 r8
End
